p cnf 25 5115
20 21 5 24 -25 20 21 5 -24 -25 20 21 5 24 -25 20 21 5 -24 -25 20 -21 5 24 -25 20 -21 5 -24 -25 20 -21 5 24 -25 20 -21 5 -24 -25 -20 21 5 24 -25 -20 21 5 -24 -25 -20 21 5 24 -25 -20 21 5 -24 -25 -20 -21 5 24 -25 -20 -21 5 -24 -25 -20 -21 5 24 25 -20 -21 5 -24 25 0
19 25 4 23 -24 19 25 4 -23 -24 19 25 4 23 -24 19 25 4 -23 -24 19 -25 4 23 -24 19 -25 4 -23 -24 19 -25 4 23 -24 19 -25 4 -23 -24 -19 25 4 23 -24 -19 25 4 -23 -24 -19 25 4 23 -24 -19 25 4 -23 -24 -19 -25 4 23 -24 -19 -25 4 -23 -24 -19 -25 4 23 24 -19 -25 4 -23 24 0
18 24 3 22 -23 18 24 3 -22 -23 18 24 3 22 -23 18 24 3 -22 -23 18 -24 3 22 -23 18 -24 3 -22 -23 18 -24 3 22 -23 18 -24 3 -22 -23 -18 24 3 22 -23 -18 24 3 -22 -23 -18 24 3 22 -23 -18 24 3 -22 -23 -18 -24 3 22 -23 -18 -24 3 -22 -23 -18 -24 3 22 23 -18 -24 3 -22 23 0
17 23 2 21 -22 17 23 2 -21 -22 17 23 2 21 -22 17 23 2 -21 -22 17 -23 2 21 -22 17 -23 2 -21 -22 17 -23 2 21 -22 17 -23 2 -21 -22 -17 23 2 21 -22 -17 23 2 -21 -22 -17 23 2 21 -22 -17 23 2 -21 -22 -17 -23 2 21 -22 -17 -23 2 -21 -22 -17 -23 2 21 22 -17 -23 2 -21 22 0
16 22 1 25 -21 16 22 1 -25 -21 16 22 1 25 -21 16 22 1 -25 -21 16 -22 1 25 -21 16 -22 1 -25 -21 16 -22 1 25 -21 16 -22 1 -25 -21 -16 22 1 25 -21 -16 22 1 -25 -21 -16 22 1 25 -21 -16 22 1 -25 -21 -16 -22 1 25 -21 -16 -22 1 -25 -21 -16 -22 1 25 21 -16 -22 1 -25 21 0
15 16 25 19 -20 15 16 25 -19 -20 15 16 25 19 -20 15 16 25 -19 -20 15 -16 25 19 -20 15 -16 25 -19 -20 15 -16 25 19 -20 15 -16 25 -19 -20 -15 16 25 19 -20 -15 16 25 -19 -20 -15 16 25 19 -20 -15 16 25 -19 -20 -15 -16 25 19 -20 -15 -16 25 -19 -20 -15 -16 25 19 20 -15 -16 25 -19 20 0
14 20 24 18 -19 14 20 24 -18 -19 14 20 24 18 -19 14 20 24 -18 -19 14 -20 24 18 -19 14 -20 24 -18 -19 14 -20 24 18 -19 14 -20 24 -18 -19 -14 20 24 18 -19 -14 20 24 -18 -19 -14 20 24 18 -19 -14 20 24 -18 -19 -14 -20 24 18 -19 -14 -20 24 -18 -19 -14 -20 24 18 19 -14 -20 24 -18 19 0
13 19 23 17 -18 13 19 23 -17 -18 13 19 23 17 -18 13 19 23 -17 -18 13 -19 23 17 -18 13 -19 23 -17 -18 13 -19 23 17 -18 13 -19 23 -17 -18 -13 19 23 17 -18 -13 19 23 -17 -18 -13 19 23 17 -18 -13 19 23 -17 -18 -13 -19 23 17 -18 -13 -19 23 -17 -18 -13 -19 23 17 18 -13 -19 23 -17 18 0
12 18 22 16 -17 12 18 22 -16 -17 12 18 22 16 -17 12 18 22 -16 -17 12 -18 22 16 -17 12 -18 22 -16 -17 12 -18 22 16 -17 12 -18 22 -16 -17 -12 18 22 16 -17 -12 18 22 -16 -17 -12 18 22 16 -17 -12 18 22 -16 -17 -12 -18 22 16 -17 -12 -18 22 -16 -17 -12 -18 22 16 17 -12 -18 22 -16 17 0
11 17 21 20 -16 11 17 21 -20 -16 11 17 21 20 -16 11 17 21 -20 -16 11 -17 21 20 -16 11 -17 21 -20 -16 11 -17 21 20 -16 11 -17 21 -20 -16 -11 17 21 20 -16 -11 17 21 -20 -16 -11 17 21 20 -16 -11 17 21 -20 -16 -11 -17 21 20 -16 -11 -17 21 -20 -16 -11 -17 21 20 16 -11 -17 21 -20 16 0
10 11 20 14 -15 10 11 20 -14 -15 10 11 20 14 -15 10 11 20 -14 -15 10 -11 20 14 -15 10 -11 20 -14 -15 10 -11 20 14 -15 10 -11 20 -14 -15 -10 11 20 14 -15 -10 11 20 -14 -15 -10 11 20 14 -15 -10 11 20 -14 -15 -10 -11 20 14 -15 -10 -11 20 -14 -15 -10 -11 20 14 15 -10 -11 20 -14 15 0
9 15 19 13 -14 9 15 19 -13 -14 9 15 19 13 -14 9 15 19 -13 -14 9 -15 19 13 -14 9 -15 19 -13 -14 9 -15 19 13 -14 9 -15 19 -13 -14 -9 15 19 13 -14 -9 15 19 -13 -14 -9 15 19 13 -14 -9 15 19 -13 -14 -9 -15 19 13 -14 -9 -15 19 -13 -14 -9 -15 19 13 14 -9 -15 19 -13 14 0
8 14 18 12 -13 8 14 18 -12 -13 8 14 18 12 -13 8 14 18 -12 -13 8 -14 18 12 -13 8 -14 18 -12 -13 8 -14 18 12 -13 8 -14 18 -12 -13 -8 14 18 12 -13 -8 14 18 -12 -13 -8 14 18 12 -13 -8 14 18 -12 -13 -8 -14 18 12 -13 -8 -14 18 -12 -13 -8 -14 18 12 13 -8 -14 18 -12 13 0
7 13 17 11 -12 7 13 17 -11 -12 7 13 17 11 -12 7 13 17 -11 -12 7 -13 17 11 -12 7 -13 17 -11 -12 7 -13 17 11 -12 7 -13 17 -11 -12 -7 13 17 11 -12 -7 13 17 -11 -12 -7 13 17 11 -12 -7 13 17 -11 -12 -7 -13 17 11 -12 -7 -13 17 -11 -12 -7 -13 17 11 12 -7 -13 17 -11 12 0
6 12 16 15 -11 6 12 16 -15 -11 6 12 16 15 -11 6 12 16 -15 -11 6 -12 16 15 -11 6 -12 16 -15 -11 6 -12 16 15 -11 6 -12 16 -15 -11 -6 12 16 15 -11 -6 12 16 -15 -11 -6 12 16 15 -11 -6 12 16 -15 -11 -6 -12 16 15 -11 -6 -12 16 -15 -11 -6 -12 16 15 11 -6 -12 16 -15 11 0
5 6 15 9 -10 5 6 15 -9 -10 5 6 15 9 -10 5 6 15 -9 -10 5 -6 15 9 -10 5 -6 15 -9 -10 5 -6 15 9 -10 5 -6 15 -9 -10 -5 6 15 9 -10 -5 6 15 -9 -10 -5 6 15 9 -10 -5 6 15 -9 -10 -5 -6 15 9 -10 -5 -6 15 -9 -10 -5 -6 15 9 10 -5 -6 15 -9 10 0
4 10 14 8 -9 4 10 14 -8 -9 4 10 14 8 -9 4 10 14 -8 -9 4 -10 14 8 -9 4 -10 14 -8 -9 4 -10 14 8 -9 4 -10 14 -8 -9 -4 10 14 8 -9 -4 10 14 -8 -9 -4 10 14 8 -9 -4 10 14 -8 -9 -4 -10 14 8 -9 -4 -10 14 -8 -9 -4 -10 14 8 9 -4 -10 14 -8 9 0
3 9 13 7 -8 3 9 13 -7 -8 3 9 13 7 -8 3 9 13 -7 -8 3 -9 13 7 -8 3 -9 13 -7 -8 3 -9 13 7 -8 3 -9 13 -7 -8 -3 9 13 7 -8 -3 9 13 -7 -8 -3 9 13 7 -8 -3 9 13 -7 -8 -3 -9 13 7 -8 -3 -9 13 -7 -8 -3 -9 13 7 8 -3 -9 13 -7 8 0
2 8 12 6 -7 2 8 12 -6 -7 2 8 12 6 -7 2 8 12 -6 -7 2 -8 12 6 -7 2 -8 12 -6 -7 2 -8 12 6 -7 2 -8 12 -6 -7 -2 8 12 6 -7 -2 8 12 -6 -7 -2 8 12 6 -7 -2 8 12 -6 -7 -2 -8 12 6 -7 -2 -8 12 -6 -7 -2 -8 12 6 7 -2 -8 12 -6 7 0
1 7 11 10 -6 1 7 11 -10 -6 1 7 11 10 -6 1 7 11 -10 -6 1 -7 11 10 -6 1 -7 11 -10 -6 1 -7 11 10 -6 1 -7 11 -10 -6 -1 7 11 10 -6 -1 7 11 -10 -6 -1 7 11 10 -6 -1 7 11 -10 -6 -1 -7 11 10 -6 -1 -7 11 -10 -6 -1 -7 11 10 6 -1 -7 11 -10 6 0
25 1 10 4 -5 25 1 10 -4 -5 25 1 10 4 -5 25 1 10 -4 -5 25 -1 10 4 -5 25 -1 10 -4 -5 25 -1 10 4 -5 25 -1 10 -4 -5 -25 1 10 4 -5 -25 1 10 -4 -5 -25 1 10 4 -5 -25 1 10 -4 -5 -25 -1 10 4 -5 -25 -1 10 -4 -5 -25 -1 10 4 5 -25 -1 10 -4 5 0
24 5 9 3 -4 24 5 9 -3 -4 24 5 9 3 -4 24 5 9 -3 -4 24 -5 9 3 -4 24 -5 9 -3 -4 24 -5 9 3 -4 24 -5 9 -3 -4 -24 5 9 3 -4 -24 5 9 -3 -4 -24 5 9 3 -4 -24 5 9 -3 -4 -24 -5 9 3 -4 -24 -5 9 -3 -4 -24 -5 9 3 4 -24 -5 9 -3 4 0
23 4 8 2 -3 23 4 8 -2 -3 23 4 8 2 -3 23 4 8 -2 -3 23 -4 8 2 -3 23 -4 8 -2 -3 23 -4 8 2 -3 23 -4 8 -2 -3 -23 4 8 2 -3 -23 4 8 -2 -3 -23 4 8 2 -3 -23 4 8 -2 -3 -23 -4 8 2 -3 -23 -4 8 -2 -3 -23 -4 8 2 3 -23 -4 8 -2 3 0
22 3 7 1 -2 22 3 7 -1 -2 22 3 7 1 -2 22 3 7 -1 -2 22 -3 7 1 -2 22 -3 7 -1 -2 22 -3 7 1 -2 22 -3 7 -1 -2 -22 3 7 1 -2 -22 3 7 -1 -2 -22 3 7 1 -2 -22 3 7 -1 -2 -22 -3 7 1 -2 -22 -3 7 -1 -2 -22 -3 7 1 2 -22 -3 7 -1 2 0
21 2 6 5 -1 21 2 6 -5 -1 21 2 6 5 -1 21 2 6 -5 -1 21 -2 6 5 -1 21 -2 6 -5 -1 21 -2 6 5 -1 21 -2 6 -5 -1 -21 2 6 5 -1 -21 2 6 -5 -1 -21 2 6 5 -1 -21 2 6 -5 -1 -21 -2 6 5 -1 -21 -2 6 -5 -1 -21 -2 6 5 1 -21 -2 6 -5 1 025 24 23 22 21 20 19 18 17 16 15 14 13 12 11 10 9 8 7 6 5 4 3 2 1 0
